
P = 1;

n = 10;

m = 10;

w1 = 1.00;

w2 = 5.00;

L = 3.00;

g = 1.26;

t = 
[[68,99,90,72,74,77,86,95,77,71],
[93,83,73,68,65,71,90,78,77,96],
[63,75,70,78,70,84,71,81,93,65],
[89,93,64,71,65,70,88,83,65,66],
[95,99,89,60,67,86,63,97,96,81],
[85,60,96,95,70,98,71,82,72,96],
[79,61,90,84,72,87,94,60,63,92],
[98,90,83,87,90,90,73,94,79,62],
[67,64,62,95,92,64,94,63,78,66],
[60,98,99,82,82,63,61,68,63,64]];
